networks/zoo_29_145/zoo_29_145.sol
<?xml version = "1.0" encoding="UTF-8" standalone="yes"?>
<CPLEXSolution version="1.2">
 <header
   problemName="networks/zoo_29_145/zoo_29_145.lp"
   solutionName="incumbent"
   solutionIndex="-1"
   objectiveValue="13"
   solutionTypeValue="3"
   solutionTypeString="primal"
   solutionStatusValue="101"
   solutionStatusString="integer optimal solution"
   solutionMethodString="mip"
   primalFeasible="1"
   dualFeasible="1"
   MIPNodes="304"
   MIPIterations="4657"
   writeLevel="3"/>
 <quality
   epInt="1.0000000000000001e-05"
   epRHS="9.9999999999999995e-07"
   maxIntInfeas="0"
   maxPrimalInfeas="0"
   maxX="4"
   maxSlack="10"/>
 <variables>
  <variable name="Y(1,2)" index="1" value="1"/>
  <variable name="Y(4,6)" index="83" value="1"/>
  <variable name="Y(17,8)" index="423" value="1"/>
  <variable name="Y(19,10)" index="477" value="1"/>
  <variable name="Y(24,14)" index="611" value="1"/>
  <variable name="Y(45,12)" index="1155" value="1"/>
  <variable name="Y(59,1)" index="1508" value="1"/>
  <variable name="Y(62,5)" index="1590" value="1"/>
  <variable name="Y(77,11)" index="1986" value="1"/>
  <variable name="Y(105,3)" index="2706" value="1"/>
  <variable name="Y(109,9)" index="2816" value="1"/>
  <variable name="Y(111,13)" index="2872" value="1"/>
  <variable name="Y(140,7)" index="3620" value="1"/>
  <variable name="X(1,4,1)" index="3770" value="1"/>
  <variable name="X(1,14,24)" index="3938" value="1"/>
  <variable name="X(1,16,59)" index="4118" value="1"/>
  <variable name="X(2,3,105)" index="4309" value="1"/>
  <variable name="X(2,6,17)" index="4366" value="1"/>
  <variable name="X(2,17,1)" index="4495" value="1"/>
  <variable name="X(3,2,1)" index="4640" value="1"/>
  <variable name="X(3,4,24)" index="4808" value="1"/>
  <variable name="X(3,18,105)" index="5034" value="1"/>
  <variable name="X(4,1,24)" index="5098" value="1"/>
  <variable name="X(4,3,1)" index="5220" value="1"/>
  <variable name="X(5,6,4)" index="5368" value="1"/>
  <variable name="X(5,14,45)" index="5554" value="1"/>
  <variable name="X(5,20,62)" index="5716" value="1"/>
  <variable name="X(6,2,105)" index="5904" value="1"/>
  <variable name="X(6,5,62)" index="6006" value="1"/>
  <variable name="X(6,9,17)" index="6106" value="1"/>
  <variable name="X(6,21,4)" index="6238" value="1"/>
  <variable name="X(7,8,62)" index="6441" value="1"/>
  <variable name="X(7,22,140)" index="6664" value="1"/>
  <variable name="X(8,7,140)" index="6809" value="1"/>
  <variable name="X(8,9,62)" index="6876" value="1"/>
  <variable name="X(8,12,77)" index="7036" value="1"/>
  <variable name="X(8,23,17)" index="7121" value="1"/>
  <variable name="X(9,6,62)" index="7311" value="1"/>
  <variable name="X(9,8,17)" index="7411" value="1"/>
  <variable name="X(9,10,19)" index="7558" value="1"/>
  <variable name="X(9,24,109)" index="7793" value="1"/>
  <variable name="X(10,9,109)" index="7938" value="1"/>
  <variable name="X(10,11,19)" index="7993" value="1"/>
  <variable name="X(11,10,109)" index="8228" value="1"/>
  <variable name="X(11,12,111)" index="8375" value="1"/>
  <variable name="X(11,26,77)" index="8486" value="1"/>
  <variable name="X(12,8,140)" index="8694" value="1"/>
  <variable name="X(12,11,77)" index="8776" value="1"/>
  <variable name="X(12,13,111)" index="8955" value="1"/>
  <variable name="X(12,27,45)" index="9034" value="1"/>
  <variable name="X(13,12,45)" index="9179" value="1"/>
  <variable name="X(13,14,59)" index="9338" value="1"/>
  <variable name="X(13,28,111)" index="9535" value="1"/>
  <variable name="X(14,1,59)" index="9628" value="1"/>
  <variable name="X(14,5,4)" index="9718" value="1"/>
  <variable name="X(14,13,45)" index="9904" value="1"/>
  <variable name="X(14,29,24)" index="10028" value="1"/>
  <variable name="C(1,4)" index="10151" value="1"/>
  <variable name="C(1,3)" index="10152" value="2"/>
  <variable name="C(1,2)" index="10153" value="3"/>
  <variable name="C(4,5)" index="10162" value="1"/>
  <variable name="C(4,6)" index="10163" value="2"/>
  <variable name="C(17,6)" index="10211" value="1"/>
  <variable name="C(17,9)" index="10212" value="2"/>
  <variable name="C(17,8)" index="10213" value="3"/>
  <variable name="C(19,10)" index="10220" value="1"/>
  <variable name="C(24,4)" index="10241" value="1"/>
  <variable name="C(24,1)" index="10242" value="2"/>
  <variable name="C(24,14)" index="10243" value="3"/>
  <variable name="C(45,14)" index="10325" value="1"/>
  <variable name="C(45,13)" index="10326" value="2"/>
  <variable name="C(45,12)" index="10327" value="3"/>
  <variable name="C(59,14)" index="10372" value="1"/>
  <variable name="C(59,1)" index="10373" value="2"/>
  <variable name="C(62,8)" index="10386" value="1"/>
  <variable name="C(62,9)" index="10387" value="2"/>
  <variable name="C(62,6)" index="10388" value="3"/>
  <variable name="C(62,5)" index="10389" value="4"/>
  <variable name="C(77,12)" index="10441" value="1"/>
  <variable name="C(77,11)" index="10442" value="2"/>
  <variable name="C(105,2)" index="10542" value="1"/>
  <variable name="C(105,3)" index="10543" value="2"/>
  <variable name="C(109,10)" index="10557" value="1"/>
  <variable name="C(109,9)" index="10558" value="2"/>
  <variable name="C(111,12)" index="10562" value="1"/>
  <variable name="C(111,13)" index="10563" value="2"/>
  <variable name="C(140,8)" index="10662" value="1"/>
  <variable name="C(140,7)" index="10663" value="2"/>
 </variables>
</CPLEXSolution>
